c User generated cnf file
p cnf 15 41
11 12 -1 0 
14 12 -2 0 
4 12 -1 0 
6 11 -2 0 
13 -7 11 0 
-9 12 9 0 
-10 1 4 0 
8 -8 6 0 
6 -3 9 0 
2 10 -10 0 
11 7 -10 0 
10 14 -7 0 
-8 3 9 0 
1 6 -6 0 
5 10 -4 0 
6 5 -14 0 
-9 8 12 0 
-13 15 13 0 
8 12 -3 0 
-7 3 7 0 
12 9 -9 0 
13 6 -4 0 
-4 13 9 0 
2 -14 7 0 
-8 4 2 0 
8 -7 9 0 
-1 15 11 0 
-4 3 13 0 
15 8 -12 0 
-9 4 1 0 
-5 9 11 0 
9 -4 13 0 
3 10 -6 0 
5 14 -3 0 
13 -3 11 0 
2 -5 10 0 
2 -6 6 0 
-15 12 8 0 
-3 14 13 0 
2 -13 7 0 
-13 11 9 0 
